hp = 55;
num_links = 11;
num_packets = 5;

% F1 - 12300
% F2 - 67800
% F3 - 12000
% F4 - 56700
% F5 - 89000
occupancy = 
[| 12300,  678000,      -1,      -1,      -1,   %L-0
 | 12300,  678000,      -1,      -1,      -1,   %0-1
 | 12300,      -1,      -1,      -1,      -1,   %1-L
 |    -1,  678000,   12000,      -1,      -1,   %1-3
 |    -1,  678000,      -1,      -1,      -1,   %3-L 
 |    -1,      -1,   12000,      -1,      -1,   %L-1
 |    -1,      -1,   12000,      -1,      -1,   %3-2
 |    -1,      -1,   12000,      -1,      -1,   %2-L
 |    -1,      -1,      -1,   56700,   89000,   %L-2
 |    -1,      -1,      -1,   56700,   89000,   %2-3
 |    -1,      -1,      -1,   56700,   89000,   %3-L
|];

% F1 - A C 
% F2 - F G
% F3 - C E
% F4 - I J 
% F5 - H J
deadline = 
[|    55,      55,      -1,      -1,      -1,   %0-1
 |    -1,      55,      -1,      -1,      -1,   %1-3
 |    -1,      -1,      55,      55,      -1,   %2-3
 |    -1,      -1,      -1,      -1,      55,   %2-0
 |    -1,      -1,      -1,      55,      -1,   %3-1
 |    -1,      -1,      -1,      -1,      55,   %3-2
 |    -1,      -1,      -1,      -1,      55,   %0-L
 |    55,      55,      -1,      -1,      -1,   %L-0
 |    55,      -1,      -1,      55,      -1,   %1-L
 |    -1,      -1,      55,      55,      -1,   %L-2
 |    -1,      55,      55,      -1,      -1,   %3-L
 |    -1,      -1,      -1,      -1,      55,   %L-3
|];

min_start = 
[| 285300, 1819300,      -1,      -1,      -1,   %L-0
 | 285300, 1819300,      -1,      -1,      -1,   %0-1
 | 285300,      -1,      -1,      -1,      -1,   %1-L
 |    -1,  1819300,  963300,      -1,      -1,   %1-3
 |    -1,  1819300,      -1,      -1,      -1,   %3-L 
 |    -1,       -1,  963300,      -1,      -1,   %L-1
 |    -1,       -1,  963300,      -1,      -1,   %3-2
 |    -1,       -1,  963300,      -1,      -1,   %2-L
 |    -1,       -1,      -1, 1280700, 1733700,   %L-2
 |    -1,       -1,      -1, 1280700, 1733700,   %2-3
 |    -1,       -1,      -1, 1280700, 1733700,   %3-L
|];
